interface ihello
{
  in void hello ();
  out void world ();
  behavior {}
}

component component_action_used_as_trigger
{
  provides ihello p;
  requires ihello r;
  behavior
  {
    on p.world (): {}
    on r.hello (): {}
  }
}
